NAME           NO_TITLE
ROWS
 N  1
 E  2
 E  3
 E  4
 E  5
 E  6
 E  7
 E  8
 E  9
 E  10
 E  11
COLUMNS
    X1  1  1
    X1  2  1
    X1  4  1
    X2  1  1
    X2  2  1
    X2  3  1
    X2  4  1
    X2  5  1
    X3  1  1
    X3  3  1
    X3  5  1
    X4  1  1
    X4  2  1
    X4  4  1
    X4  6  1
    X5  1  1
    X5  2  1
    X5  3  1
    X5  4  1
    X5  5  1
    X5  6  1
    X5  7  1
    X6  1  1
    X6  3  1
    X6  5  1
    X6  7  1
    X7  1  1
    X7  4  1
    X7  6  1
    X7  8  1
    X8  1  1
    X8  4  1
    X8  5  1
    X8  6  1
    X8  7  1
    X8  8  1
    X8  9  1
    X9  1  1
    X9  5  1
    X9  7  1
    X9  9  1
    X10  1  1
    X10  6  1
    X10  8  1
    X10  10  1
    X11  1  1
    X11  6  1
    X11  7  1
    X11  8  1
    X11  9  1
    X11  10  1
    X11  11  1
    X12  1  1
    X12  7  1
    X12  9  1
    X12  11  1
    X13  1  1
    X13  8  1
    X13  10  1
    X14  1  1
    X14  8  1
    X14  9  1
    X14  10  1
    X14  11  1
    X15  1  1
    X15  9  1
    X15  11  1
RHS
    RHS1      2  1
    RHS1      3  1
    RHS1      4  1
    RHS1      5  1
    RHS1      6  1
    RHS1      7  1
    RHS1      8  1
    RHS1      9  1
    RHS1      10  1
    RHS1      11  1
BOUNDS
 BV BND1      X1
 BV BND1      X2
 BV BND1      X3
 BV BND1      X4
 BV BND1      X5
 BV BND1      X6
 BV BND1      X7
 BV BND1      X8
 BV BND1      X9
 BV BND1      X10
 BV BND1      X11
 BV BND1      X12
 BV BND1      X13
 BV BND1      X14
 BV BND1      X15
ENDATA
